n_res = 4;
rc = [ 14, 13, 6, 15 ];
n_tasks = 30;
d = [ 9, 3, 8, 3, 5, 5, 5, 7, 3, 8, 9, 9, 6, 10, 3, 1, 3, 8, 9, 9, 3, 8, 2, 10, 1, 1, 3, 5, 6, 4 ];
rr = [| 14, 14, 14, 14, 14, 14, 14, 14, 14, 14, 14, 14, 14, 14, 14, 14, 14, 14, 14, 14, 14, 14, 14, 14, 14, 14, 14, 14, 14, 14
      | 13, 13, 13, 13, 13, 13, 13, 13, 13, 13, 13, 13, 13, 13, 13, 13, 13, 13, 13, 13, 13, 13, 13, 13, 13, 13, 13, 13, 13, 13
      | 6, 6, 6, 6, 6, 6, 6, 6, 6, 6, 6, 6, 6, 6, 6, 6, 6, 6, 6, 6, 6, 6, 6, 6, 6, 6, 6, 6, 6, 6
      | 15, 15, 15, 15, 15, 15, 15, 15, 15, 15, 15, 15, 15, 15, 15, 15, 15, 15, 15, 15, 15, 15, 15, 15, 15, 15, 15, 15, 15, 15|];
suc = [ { 5, 7, 11 },
       { 4, 17, 21 },
       { 6, 8, 13 },
       { 7, 10, 24 },
       { 15 },
       { 9, 10, 17 },
       { 13, 28 },
       { 9, 15, 17 },
       { 12, 18, 19 },
       { 14, 16, 19 },
       { 13, 15, 16 },
       { 14, 16, 25 },
       { 29 },
       { 20, 22 },
       { 18, 19, 24 },
       { 20, 22, 27 },
       { 20, 24, 26 },
       { 26, 30 },
       { 23, 26 },
       { 23 },
       { 22, 23, 25 },
       { 30 },
       { 28, 29, 30 },
       { 25 },
       { 27, 29 },
       { 27 },
       { 28 },
       {  },
       {  },
       {  } ];
